This is Ipopt version 3.14.16, running with linear solver MUMPS 5.7.3.

Number of nonzeros in equality constraint Jacobian...:        0
Number of nonzeros in inequality constraint Jacobian.:      544
Number of nonzeros in Lagrangian Hessian.............:        0

Total number of variables............................:       16
                     variables with only lower bounds:        0
                variables with lower and upper bounds:       16
                     variables with only upper bounds:        0
Total number of equality constraints.................:        0
Total number of inequality constraints...............:       34
        inequality constraints with only lower bounds:        0
   inequality constraints with lower and upper bounds:        0
        inequality constraints with only upper bounds:       34

iter    objective    inf_pr   inf_du lg(mu)  ||d||  lg(rg) alpha_du alpha_pr  ls
   0  2.0024700e-02 5.71e-08 1.00e+00   0.0 0.00e+00    -  0.00e+00 0.00e+00   0
   1  2.0220548e-02 0.00e+00 1.52e-01  -5.5 7.74e-02    -  8.62e-01 9.94e-01h  1
   2  2.0217522e-02 0.00e+00 6.07e-03  -6.4 4.85e-03    -  9.88e-01 1.00e+00h  1
   3  2.0201625e-02 0.00e+00 4.20e-03  -4.4 3.51e-01    -  9.87e-01 1.00e+00h  1
   4  2.0049658e-02 0.00e+00 4.78e-04  -5.3 7.69e-01    -  1.00e+00 1.00e+00h  1
   5  1.9980153e-02 0.00e+00 1.56e-03  -5.4 1.89e+00    -  1.00e+00 9.87e-01h  1
   6  1.9963019e-02 0.00e+00 5.10e-05  -6.6 4.07e-01    -  1.00e+00 1.00e+00h  1
   7  1.9958874e-02 2.31e-06 1.67e-05  -7.9 1.49e-01    -  1.00e+00 1.00e+00h  1
   8  1.9958400e-02 2.14e-06 9.79e-06  -8.7 1.02e-02    -  1.00e+00 1.00e+00h  1
   9  1.9958371e-02 1.45e-07 3.24e-06  -8.8 2.93e-02    -  1.00e+00 1.00e+00h  1
iter    objective    inf_pr   inf_du lg(mu)  ||d||  lg(rg) alpha_du alpha_pr  ls
  10  1.9958360e-02 4.29e-09 1.10e-06 -10.5 1.82e-02    -  1.00e+00 1.00e+00h  1
  11  1.9958360e-02 0.00e+00 6.23e-08 -11.0 3.23e-03    -  1.00e+00 1.00e+00h  1

Number of Iterations....: 11

                                   (scaled)                 (unscaled)
Objective...............:   1.9958359898799790e-02    1.9958359898799790e-02
Dual infeasibility......:   6.2260241328381628e-08    6.2260241328381628e-08
Constraint violation....:   0.0000000000000000e+00    0.0000000000000000e+00
Variable bound violation:   8.4863860817102621e-09    8.4863860817102621e-09
Complementarity.........:   1.0014041982685092e-11    1.0014041982685092e-11
Overall NLP error.......:   6.2260241328381628e-08    6.2260241328381628e-08


Number of objective function evaluations             = 12
Number of objective gradient evaluations             = 12
Number of equality constraint evaluations            = 0
Number of inequality constraint evaluations          = 12
Number of equality constraint Jacobian evaluations   = 0
Number of inequality constraint Jacobian evaluations = 12
Number of Lagrangian Hessian evaluations             = 0
Total seconds in IPOPT                               = 1.850

EXIT: Optimal Solution Found.
